*SENSE:Minimize
NAME          MODEL
ROWS
 N  OBJ
 L  C0000000
 L  C0000001
 L  C0000002
 G  C0000003
 G  C0000004
COLUMNS
    X0000000  C0000001   1.000000000000e+00
    X0000000  C0000004   1.000000000000e+00
    X0000000  OBJ        1.590000000000e+04
    X0000001  C0000001   1.000000000000e+00
    X0000001  C0000003   1.000000000000e+00
    X0000001  OBJ        1.570000000000e+04
    X0000002  C0000002   1.000000000000e+00
    X0000002  C0000004   1.000000000000e+00
    X0000002  OBJ        1.210000000000e+04
    X0000003  C0000003   1.000000000000e+00
    X0000003  C0000002   1.000000000000e+00
    X0000003  OBJ        1.460000000000e+04
    X0000004  C0000000   1.000000000000e+00
    X0000004  C0000004   1.000000000000e+00
    X0000004  OBJ        1.310000000000e+04
    X0000005  C0000000   1.000000000000e+00
    X0000005  C0000003   1.000000000000e+00
    X0000005  OBJ        4.560000000000e+02
RHS
    RHS       C0000000   4.200000000000e+03
    RHS       C0000001   3.900000000000e+03
    RHS       C0000002   7.000000000000e+02
    RHS       C0000003   4.700000000000e+03
    RHS       C0000004   4.100000000000e+03
BOUNDS
